c ---- [ banner ] ------------------------------------------------------------
c
c Kissat SAT Solver
c 
c Copyright (c) 2021-2024 Armin Biere University of Freiburg
c Copyright (c) 2019-2021 Armin Biere Johannes Kepler University Linz
c 
c Version 4.0.1 43f02cf3e992cb44653b35e5cb26f93281552ae0
c gcc (Ubuntu 13.2.0-23ubuntu4) 13.2.0 -W -Wall -O3 -DNDEBUG
c Thu Sep 12 12:27:46 CEST 2024 Linux abryzen9 6.8.0-41-generic x86_64
c
c ---- [ parsing ] -----------------------------------------------------------
c
c opened and reading DIMACS file:
c
c   /data/artifact/AMulet2.0_artifact/exp4/cnf_dc2_64/64_64_U2_WT_HCA_Multgen_dc2.cnf
c
c parsed 'p cnf 35905 158753' header
c closing input after reading 3210035 bytes (3 MB)
c finished parsing after 0.03 seconds
c
c ---- [ options ] -----------------------------------------------------------
c
c --stable=0                       (different from default '1')
c
c ---- [ solving ] -----------------------------------------------------------
c
c  seconds switched rate     size/glue tier1  binary          remaining
c         MB reductions conflicts size  tier2    irredundant
c          level restarts redundant glue  trail          variables
c
c *  0.03 15 0 0 0  0 0   0   0 0.0 0 0 0 0 0% 4378 154373 35902 100%
c (  0.05 18 0 0 0  0 0   0   0 0.0 0 0 0 0 0% 4378 154373 35902 100%
c .  0.05 19 0 0 0  0 0   0   0 0.0 0 0 0 0 0% 4374 154373 35902 100%
c c  0.14 28 0 0 0  0 0   0   0 0.0 0 0 0 0 0% 17984 127240 29098 81%
c d  0.15 28 0 0 0  0 0   0   0 0.0 0 0 0 0 0% 4374 127240 29098 81%
c =  0.19 28 0 0 0  0 0   0   0 0.0 0 0 0 0 0% 4520 127240 28998 81%
c d  0.19 28 0 0 0  0 0   0   0 0.0 0 0 0 0 0% 4320 127240 28998 81%
c f  0.29 27 0 0 0  0 0   0   0 0.0 0 0 0 0 0% 11226 116810 32470 90%
c e  0.45 28 0 0 0  0 0   0   0 0.0 0 0 0 0 0% 3286 127529 22042 61%
c )  0.45 28 0 0 0  0 0   0   0 0.0 0 0 0 0 0% 3286 127529 22042 61%
c {  0.46 28 0 0 0  0 0   0   0 0.0 0 0 2 6 0% 3286 127529 22042 61%
c -  0.60 28 194 0 1 254 36 1000 748 2.8 13 5 3 9 18% 3357 127528 22042 61%
c -  0.81 28 272 0 2 400 42 2000 1512 3.7 19 5 3 10 22% 3378 127528 22042 61%
c c  0.92 28 284 0 2 435 40 2507 1979 3.5 18 5 3 11 21% 4364 123931 21550 60%
c d  0.93 28 284 0 2 435 40 2507 1972 3.5 18 5 3 11 21% 3380 123931 21550 60%
c u  0.94 28 284 0 2 435 40 2507 1628 3.5 18 5 3 11 21% 3323 123931 21550 60%
c v  0.95 28 284 0 2 435 40 2507 1373 3.5 18 5 3 11 21% 3323 123931 21550 60%
c w  0.96 28 284 0 2 435 40 2507 1368 3.5 18 5 3 11 21% 3323 123931 21550 60%
c x  0.97 28 284 0 2 435 40 2507 1368 3.5 18 5 3 11 21% 3417 123709 21550 60%
c =  1.03 28 284 0 2 435 40 2507 1368 3.5 18 5 3 11 21% 3567 123709 21475 60%
c
c  seconds   switched   rate       size/glue tier1     binary          remaining
c         MB  reductions conflicts       size  tier2      irredundant
c           level restarts    redundant    glue    trail          variables
c
c d  1.03 28 284 0 2 435 40 2507 1365 3.5 18 5 3 11 21% 3417 123709 21475 60%
c t  1.04 28 284 0 2 435 40 2507 1365 3.5 18 5 3 11 21% 3411 123709 21475 60%
c f  1.06 28 284 0 2 435 40 2507 1365 3.5 18 5 3 11 21% 3446 123655 21494 60%
c u  1.13 28 284 0 2 435 40 2507 1332 3.5 18 5 3 11 21% 3447 123655 21494 60%
c v  1.14 28 284 0 2 435 40 2507 1289 3.5 18 5 3 11 21% 3447 123655 21494 60%
c w  1.15 28 284 0 2 435 40 2507 1282 3.5 18 5 3 11 21% 3447 123655 21494 60%
c x  1.17 28 284 0 2 435 40 2507 1282 3.5 18 5 3 11 21% 3448 123424 21494 60%
c =  1.22 28 284 0 2 435 40 2507 1282 3.5 18 5 3 11 21% 3882 123424 21277 59%
c d  1.23 28 284 0 2 435 40 2507 1282 3.5 18 5 3 11 21% 3448 123424 21277 59%
c t  1.23 28 284 0 2 435 40 2507 1282 3.5 18 5 3 11 21% 3444 123424 21277 59%
c f  1.25 28 284 0 2 435 40 2507 1282 3.5 18 5 3 11 21% 3448 123418 21279 59%
c -  1.40 28 299 0 3 515 39 3414 1793 3.3 17 5 3 10 22% 3499 123418 21279 59%
c -  1.57 28 401 0 4 653 39 5146 3018 3.1 15 5 3 9 21% 3614 123398 21279 59%
c -  1.99 28 365 0 5 993 42 7149 4232 3.4 17 5 2 9 22% 3685 123389 21279 59%
c d  2.01 28 389 0 5 998 40 7719 4719 3.3 17 5 2 9 21% 3658 123387 21256 59%
c u  2.04 28 389 0 5 998 40 7719 4291 3.3 17 5 2 9 21% 3665 123387 21256 59%
c v  2.07 28 389 0 5 998 40 7719 3582 3.3 17 5 2 9 21% 3667 123387 21256 59%
c w  2.08 28 389 0 5 998 40 7719 3577 3.3 17 5 2 9 21% 3667 123387 21256 59%
c x  2.12 28 389 0 5 998 40 7719 3577 3.3 17 5 2 9 21% 3667 123058 21256 59%
c =  2.21 28 389 0 5 998 40 7719 3577 3.3 17 5 2 9 21% 3871 123058 21154 59%
c
c  seconds   switched   rate       size/glue tier1    binary          remaining
c         MB  reductions conflicts       size  tier2     irredundant
c           level restarts    redundant    glue   trail          variables
c
c d  2.22 28 389 0 5 998 40 7719 3573 3.3 17 5 2 9 21% 3662 123058 21154 59%
c t  2.23 28 389 0 5 998 40 7719 3573 3.3 17 5 2 9 21% 3653 123058 21154 59%
c f  2.26 28 389 0 5 998 40 7719 3573 3.3 17 5 2 9 21% 3701 122984 21178 59%
c c  2.32 28 389 0 5 998 40 7719 3569 3.3 17 5 2 9 21% 3709 122959 21174 59%
c d  2.32 28 389 0 5 998 40 7719 3569 3.3 17 5 2 9 21% 3701 122959 21174 59%
c u  2.34 28 389 0 5 998 40 7719 3507 3.3 17 5 2 9 21% 3700 122959 21174 59%
c v  2.35 28 389 0 5 998 40 7719 3440 3.3 17 5 2 9 21% 3700 122959 21174 59%
c w  2.36 28 389 0 5 998 40 7719 3439 3.3 17 5 2 9 21% 3700 122959 21174 59%
c x  2.39 28 389 0 5 998 40 7719 3439 3.3 17 5 2 9 21% 3760 120975 21174 59%
c =  2.48 28 389 0 5 998 40 7719 3439 3.3 17 5 2 9 21% 4190 120975 20959 58%
c d  2.49 28 389 0 5 998 40 7719 3438 3.3 17 5 2 9 21% 3755 120975 20959 58%
c t  2.50 28 389 0 5 998 40 7719 3438 3.3 17 5 2 9 21% 3721 120975 20959 58%
c -  2.95 28 358 0 6 1184 40 9386 4475 3.4 17 5 2 8 22% 3765 120965 20959 58%
c o  3.08 28 350 0 6 1236 39 10044 5065 3.3 17 5 2 8 22% 3777 120965 20959 58%
c -  3.57 28 337 0 7 1447 40 11836 5940 3.7 20 6 2 8 23% 3859 120965 20959 58%
c s  3.73 28 335 0 7 1512 40 12531 6556 3.7 20 6 2 8 23% 3885 118455 20959 58%
c e  3.85 28 335 0 7 1512 40 12531 6556 3.7 20 6 2 8 23% 3144 119043 20518 57%
c s  3.86 28 335 0 7 1512 40 12531 6556 3.7 20 6 2 8 23% 3149 118860 20518 57%
c ^  3.87 28 335 0 7 1512 40 12531 6556 3.7 20 6 2 8 23% 3149 118860 20518 57%
c -  4.17 28 362 0 8 1629 38 14481 7110 3.6 20 6 2 8 23% 3243 118856 20518 57%
c
c  seconds   switched    rate        size/glue tier1    binary          remaining
c         MB  reductions   conflicts       size  tier2     irredundant
c           level  restarts     redundant    glue   trail          variables
c
c d  4.35 28 370 0 8 1725 38 15808 8230 3.6 20 5 2 8 23% 3215 118849 20486 57%
c u  4.38 28 370 0 8 1725 38 15808 7426 3.6 20 5 2 8 23% 3227 118849 20486 57%
c v  4.41 28 370 0 8 1725 38 15808 6385 3.6 20 5 2 8 23% 3227 118849 20486 57%
c w  4.47 28 370 0 8 1725 38 15808 6372 3.6 20 5 2 8 23% 3227 118849 20486 57%
c x  4.50 28 370 0 8 1725 38 15808 6372 3.6 20 5 2 8 23% 3279 118608 20486 57%
c =  4.64 28 370 0 8 1725 38 15808 6372 3.6 20 5 2 8 23% 3623 118608 20314 57%
c d  4.65 28 370 0 8 1725 38 15808 6348 3.6 20 5 2 8 23% 3255 118608 20314 57%
c t  4.66 28 370 0 8 1725 38 15808 6348 3.6 20 5 2 8 23% 3232 118608 20314 57%
c f  4.70 28 370 0 8 1725 38 15808 6348 3.6 20 5 2 8 23% 3239 118588 20319 57%
c u  4.73 28 370 0 8 1725 38 15808 6217 3.6 20 5 2 8 23% 3242 118588 20319 57%
c v  4.75 28 370 0 8 1725 38 15808 6065 3.6 20 5 2 8 23% 3243 118588 20319 57%
c w  4.81 28 370 0 8 1725 38 15808 6045 3.6 20 5 2 8 23% 3243 118588 20319 57%
c x  4.84 28 370 0 8 1725 38 15808 6045 3.6 20 5 2 8 23% 3249 118438 20319 57%
c =  4.99 28 370 0 8 1725 38 15808 6045 3.6 20 5 2 8 23% 6215 118438 18836 52%
c d  5.00 28 370 0 8 1725 38 15808 5952 3.6 20 5 2 8 23% 3188 118438 18836 52%
c t  5.01 28 370 0 8 1725 38 15808 5952 3.6 20 5 2 8 23% 3169 118438 18836 52%
c -  5.16 28 375 0 9 1782 37 17309 6677 3.5 19 5 2 8 22% 3194 118436 18836 52%
c o  5.50 28 364 0 9 1972 36 20267 9136 3.4 18 5 2 8 21% 3264 118434 18836 52%
c -  5.53 28 363 0 10 1984 36 20309 8480 3.5 19 5 2 7 21% 3264 118434 18836 52%
c -  6.46 28 345 0 11 2425 37 23471 10320 3.6 20 6 2 7 22% 3315 118434 18836 52%
c
c  seconds   switched     rate         size/glue tier1    binary          remaining
c         MB   reductions   conflicts        size  tier2     irredundant
c           level   restarts      redundant    glue   trail          variables
c
c s  7.13 28 333 0 11 2640 37 25047 11636 3.6 22 6 2 7 23% 3361 107925 18836 52%
c e  7.24 28 333 0 11 2640 37 25047 11636 3.6 22 6 2 7 23% 2856 108509 18529 52%
c 2  7.25 28 333 0 11 2640 37 25047 11636 3.6 22 6 2 7 23% 2854 108509 18529 52%
c s  7.25 28 333 0 11 2640 37 25047 11636 3.6 22 6 2 7 23% 2898 108073 18529 52%
c e  7.26 28 333 0 11 2640 37 25047 11636 3.6 22 6 2 7 23% 2885 108089 18524 52%
c ^  7.26 28 333 0 11 2640 37 25047 11636 3.6 22 6 2 7 23% 2885 108089 18524 52%
c -  7.48 28 328 0 12 2723 35 26789 11195 3.5 22 6 2 6 22% 2917 108089 18524 52%
c c  7.56 28 327 0 12 2723 35 26949 11314 3.5 22 6 2 6 22% 2993 107801 18481 51%
c d  7.57 28 327 0 12 2723 35 26949 11263 3.5 22 6 2 6 22% 2907 107801 18481 51%
c u  7.63 28 327 0 12 2723 35 26949 9963 3.5 22 6 2 6 22% 2923 107801 18481 51%
c v  7.68 28 327 0 12 2723 35 26949 8885 3.5 22 6 2 6 22% 2924 107801 18481 51%
c w  7.69 28 327 0 12 2723 35 26949 8878 3.5 22 6 2 6 22% 2924 107801 18481 51%
c x  7.74 28 327 0 12 2723 35 26949 8878 3.5 22 6 2 6 22% 2924 107676 18481 51%
c =  8.00 28 327 0 12 2723 35 26949 8878 3.5 22 6 2 6 22% 6104 107676 16891 47%
c d  8.01 28 327 0 12 2723 35 26949 8692 3.5 22 6 2 6 22% 2845 107676 16891 47%
c t  8.02 28 327 0 12 2723 35 26949 8692 3.5 22 6 2 6 22% 2786 107676 16891 47%
c f  8.09 28 327 0 12 2723 35 26949 8692 3.5 22 6 2 6 22% 2817 107582 16910 47%
c u  8.15 28 327 0 12 2723 35 26949 8374 3.5 22 6 2 6 22% 2820 107582 16910 47%
c v  8.18 28 327 0 12 2723 35 26949 8194 3.5 22 6 2 6 22% 2820 107582 16910 47%
c w  8.19 28 327 0 12 2723 35 26949 8193 3.5 22 6 2 6 22% 2820 107582 16910 47%
c
c  seconds   switched     rate        size/glue tier1    binary          remaining
c         MB   reductions   conflicts       size  tier2     irredundant
c           level   restarts     redundant    glue   trail          variables
c
c =  8.43 28 327 0 12 2723 35 26949 8193 3.5 22 6 2 6 22% 3534 107582 16553 46%
c d  8.44 28 327 0 12 2723 35 26949 8179 3.5 22 6 2 6 22% 2804 107582 16552 46%
c t  8.45 28 327 0 12 2723 35 26949 8179 3.5 22 6 2 6 22% 2789 107582 16552 46%
c f  8.49 28 327 0 12 2723 35 26949 8179 3.5 22 6 2 6 22% 2793 107568 16555 46%
c -  8.94 28 322 0 13 2871 34 30253 10111 3.3 22 7 2 6 22% 2851 107564 16555 46%
c -  9.51 28 309 0 14 3069 32 33861 12096 3.2 21 7 2 6 22% 2898 107562 16555 46%
c - 10.17 28 299 0 15 3349 32 37602 13919 3.2 21 7 2 6 22% 2973 107558 16555 46%
c o 10.84 28 289 0 15 3673 31 40922 16805 3.2 22 7 2 6 22% 3038 107554 16555 46%
c c 10.95 28 288 0 15 3725 31 41282 17116 3.2 22 7 2 6 22% 3147 107088 16476 46%
c d 10.96 28 288 0 15 3725 31 41282 16821 3.2 22 7 2 6 22% 2989 107088 16476 46%
c u 11.01 28 288 0 15 3725 31 41282 14851 3.2 22 7 2 6 22% 2996 107088 16476 46%
c v 11.05 28 288 0 15 3725 31 41282 14009 3.2 22 7 2 6 22% 2997 107088 16476 46%
c w 11.08 28 288 0 15 3725 31 41282 14009 3.2 22 7 2 6 22% 2997 107088 16476 46%
c x 11.11 28 288 0 15 3725 31 41282 14009 3.2 22 7 2 6 22% 2997 106995 16476 46%
c = 11.27 28 288 0 15 3725 31 41282 14009 3.2 22 7 2 6 22% 3011 106995 16469 46%
c d 11.28 28 288 0 15 3725 31 41282 13984 3.2 22 7 2 6 22% 2981 106995 16462 46%
c t 11.29 28 288 0 15 3725 31 41282 13984 3.2 22 7 2 6 22% 2961 106995 16462 46%
c f 11.30 28 288 0 15 3725 31 41282 13984 3.2 22 7 2 6 22% 2976 106956 16470 46%
c c 11.35 28 288 0 15 3725 31 41282 13956 3.2 22 7 2 6 22% 2987 106907 16463 46%
c d 11.36 28 288 0 15 3725 31 41282 13956 3.2 22 7 2 6 22% 2973 106907 16463 46%
c
c  seconds   switched     rate         size/glue tier1    binary          remaining
c         MB   reductions   conflicts        size  tier2     irredundant
c           level   restarts      redundant    glue   trail          variables
c
c u 11.39 28 288 0 15 3725 31 41282 13645 3.2 22 7 2 6 22% 2982 106907 16463 46%
c v 11.43 28 288 0 15 3725 31 41282 12727 3.2 22 7 2 6 22% 2987 106907 16463 46%
c w 11.47 28 288 0 15 3725 31 41282 12727 3.2 22 7 2 6 22% 2987 106907 16463 46%
c x 11.51 29 288 0 15 3725 31 41282 12727 3.2 22 7 2 6 22% 2987 106900 16463 46%
c = 11.66 29 288 0 15 3725 31 41282 12727 3.2 22 7 2 6 22% 3001 106900 16456 46%
c d 11.67 29 288 0 15 3725 31 41282 12709 3.2 22 7 2 6 22% 2970 106900 16452 46%
c t 11.68 29 288 0 15 3725 31 41282 12709 3.2 22 7 2 6 22% 2961 106900 16452 46%
c - 11.71 29 288 0 16 3725 31 41474 11672 3.2 22 7 2 6 22% 2963 106900 16452 46%
c - 12.32 29 282 0 17 4063 31 45474 13806 3.2 22 7 2 6 22% 3019 106899 16452 46%
c - 12.95 29 274 0 18 4376 30 49597 15835 3.2 23 7 2 5 22% 3087 106897 16452 46%
c s 13.15 29 268 0 18 4451 29 52156 17947 3.2 22 7 2 5 22% 3128 94359 16452 46%
c e 13.21 29 268 0 18 4451 29 52156 17947 3.2 22 7 2 5 22% 2836 94896 16253 45%
c s 13.21 29 268 0 18 4451 29 52156 17947 3.2 22 7 2 5 22% 2843 94691 16253 45%
c e 13.22 29 268 0 18 4451 29 52156 17947 3.2 22 7 2 5 22% 2839 94699 16251 45%
c ^ 13.22 29 268 0 18 4451 29 52156 17947 3.2 22 7 2 5 22% 2839 94699 16251 45%
c - 13.42 29 265 0 19 4572 29 53840 17102 3.2 22 7 2 5 22% 2862 94699 16251 45%
c - 14.03 30 255 0 20 4944 28 58199 16592 3.2 23 7 1 5 22% 2940 94699 16251 45%
c d 14.13 30 254 0 20 5004 28 58913 17131 3.2 23 7 1 5 22% 2899 94696 16222 45%
c u 14.17 30 254 0 20 5004 28 58913 15841 3.2 23 7 1 5 22% 2916 94696 16222 45%
c v 14.23 30 254 0 20 5004 28 58913 13753 3.2 23 7 1 5 22% 2942 94696 16222 45%
c
c  seconds   switched     rate         size/glue tier1    binary         remaining
c         MB   reductions   conflicts        size  tier2     irredundant
c           level   restarts      redundant    glue   trail         variables
c
c w 14.28 30 254 0 20 5004 28 58913 13594 3.2 23 7 1 5 22% 2942 94696 16222 45%
c = 14.48 30 254 0 20 5004 28 58913 13594 3.2 23 7 1 5 22% 3022 94696 16182 45%
c d 14.49 30 254 0 20 5004 28 58913 13574 3.2 23 7 1 5 22% 2917 94696 16173 45%
c t 14.50 30 254 0 20 5004 28 58913 13574 3.2 23 7 1 5 22% 2887 94696 16173 45%
c f 14.51 30 254 0 20 5004 28 58913 13574 3.2 23 7 1 5 22% 2896 94660 16178 45%
c c 14.56 30 254 0 20 5004 28 58913 13504 3.2 23 7 1 5 22% 2985 94307 16129 45%
c d 14.57 30 254 0 20 5004 28 58913 13504 3.2 23 7 1 5 22% 2887 94307 16129 45%
c u 14.60 30 254 0 20 5004 28 58913 13261 3.2 23 7 1 5 22% 2880 94307 16129 45%
c v 14.63 30 254 0 20 5004 28 58913 12762 3.2 23 7 1 5 22% 2889 94307 16129 45%
c w 14.67 30 254 0 20 5004 28 58913 12675 3.2 23 7 1 5 22% 2889 94307 16129 45%
c x 14.73 32 254 0 20 5004 28 58913 12675 3.2 23 7 1 5 22% 2915 93425 16129 45%
c = 14.92 32 254 0 20 5004 28 58913 12675 3.2 23 7 1 5 22% 3175 93425 15999 45%
c d 14.92 32 254 0 20 5004 28 58913 12597 3.2 23 7 1 5 22% 2884 93425 15998 45%
c t 14.93 32 254 0 20 5004 28 58913 12597 3.2 23 7 1 5 22% 2849 93425 15998 45%
c - 15.31 32 250 0 21 5233 28 62671 13420 3.2 23 7 1 5 22% 2933 93424 15998 45%
c - 15.73 32 243 0 22 5463 27 67256 14983 3.2 22 7 1 5 21% 2994 93424 15998 45%
c o 16.25 32 238 0 22 5757 26 70944 18219 3.2 23 7 1 5 21% 3053 93424 15998 45%
c - 16.44 32 238 0 23 5857 26 71947 16265 3.2 23 7 1 5 21% 3060 93424 15998 45%
c - 17.00 32 234 0 24 6216 26 76745 17365 3.2 22 7 1 5 21% 3157 93422 15998 45%
c c 17.43 32 232 0 24 6467 26 79967 20196 3.2 23 7 1 5 21% 3341 92546 15835 44%
c
c  seconds   switched     rate         size/glue tier1    binary         remaining
c         MB   reductions   conflicts        size  tier2     irredundant
c           level   restarts      redundant    glue   trail         variables
c
c d 17.43 32 232 0 24 6467 26 79967 19853 3.2 23 7 1 5 21% 3015 92546 15835 44%
c u 17.47 32 232 0 24 6467 26 79967 18171 3.2 23 7 1 5 21% 3020 92546 15835 44%
c v 17.53 32 232 0 24 6467 26 79967 15675 3.2 23 7 1 5 21% 3045 92546 15835 44%
c w 17.59 32 232 0 24 6467 26 79967 15665 3.2 23 7 1 5 21% 3045 92546 15835 44%
c x 17.67 32 232 0 24 6467 26 79967 15664 3.2 23 7 1 5 21% 3088 91687 15835 44%
c = 17.94 32 232 0 24 6467 26 79967 15664 3.2 23 7 1 5 21% 4202 91687 15278 43%
c d 17.94 32 232 0 24 6467 26 79967 15186 3.2 23 7 1 5 21% 2966 91687 15275 43%
c t 17.95 32 232 0 24 6467 26 79967 15186 3.2 23 7 1 5 21% 2866 91687 15275 43%
c f 17.97 32 232 0 24 6467 26 79967 15186 3.2 23 7 1 5 21% 2872 91637 15282 43%
c c 18.01 32 232 0 24 6467 26 79967 15183 3.2 23 7 1 5 21% 2885 91595 15275 43%
c d 18.02 32 232 0 24 6467 26 79967 15183 3.2 23 7 1 5 21% 2871 91595 15275 43%
c u 18.06 32 232 0 24 6467 26 79967 14703 3.2 23 7 1 5 21% 2869 91595 15275 43%
c v 18.09 32 232 0 24 6467 26 79967 14162 3.2 23 7 1 5 21% 2869 91595 15275 43%
c w 18.19 32 232 0 24 6467 26 79967 14131 3.2 23 7 1 5 21% 2869 91595 15275 43%
c x 18.23 32 232 0 24 6467 26 79967 14131 3.2 23 7 1 5 21% 2886 91309 15275 43%
c = 18.56 32 232 0 24 6467 26 79967 14131 3.2 23 7 1 5 21% 3974 91309 14731 41%
c d 18.56 32 232 0 24 6467 26 79967 13970 3.2 23 7 1 5 21% 2864 91309 14731 41%
c t 18.57 32 232 0 24 6467 26 79967 13970 3.2 23 7 1 5 21% 2763 91309 14731 41%
c f 18.59 32 232 0 24 6467 26 79967 13970 3.2 23 7 1 5 21% 2776 91203 14746 41%
c - 18.78 32 233 0 25 6568 26 81645 13253 3.2 23 7 1 5 22% 2789 91203 14746 41%
c
c  seconds   switched     rate         size/glue tier1    binary         remaining
c         MB   reductions   conflicts        size  tier2     irredundant
c           level   restarts      redundant    glue   trail         variables
c
c - 19.37 32 226 0 26 6946 25 86645 15365 3.2 23 7 1 5 22% 2842 91201 14746 41%
c - 19.78 32 222 0 27 7188 25 91744 17127 3.2 22 7 1 5 21% 2916 91201 14746 41%
c s 20.38 32 218 0 27 7559 25 95807 20805 3.2 22 7 1 5 22% 2948 84625 14746 41%
c e 20.49 32 218 0 27 7559 25 95807 20805 3.2 22 7 1 5 22% 1674 87634 14128 39%
c 2 20.49 32 218 0 27 7559 25 95807 20805 3.2 22 7 1 5 22% 1672 87634 14128 39%
c s 20.50 32 218 0 27 7559 25 95807 20805 3.2 22 7 1 5 22% 1700 86990 14128 39%
c e 20.52 32 218 0 27 7559 25 95807 20805 3.2 22 7 1 5 22% 1668 87135 14075 39%
c ^ 20.52 32 218 0 27 7559 25 95807 20805 3.2 22 7 1 5 22% 1668 87135 14075 39%
c - 20.72 32 217 0 28 7652 25 96940 16580 3.2 22 7 1 5 22% 1694 87135 14075 39%
c - 21.38 32 213 0 29 7915 24 102231 18156 3.1 22 7 1 5 21% 1743 87135 14075 39%
c d 21.77 32 212 0 29 8075 24 104571 20135 3.1 22 7 1 5 21% 1741 87134 14058 39%
c u 21.84 32 212 0 29 8075 24 104571 18703 3.1 22 7 1 5 21% 1757 87134 14058 39%
c v 21.94 32 212 0 29 8075 24 104571 16373 3.1 22 7 1 5 21% 1774 87134 14058 39%
c w 22.03 32 212 0 29 8075 24 104571 16369 3.1 22 7 1 5 21% 1774 87134 14058 39%
c x 22.09 32 212 0 29 8075 24 104571 16364 3.1 22 7 1 5 21% 1787 87080 14058 39%
c = 22.49 32 212 0 29 8075 24 104571 16364 3.1 22 7 1 5 21% 2325 87078 13789 38%
c d 22.49 32 212 0 29 8075 24 104571 15916 3.1 22 7 1 5 21% 1745 87078 13789 38%
c t 22.51 32 212 0 29 8075 24 104571 15916 3.1 22 7 1 5 21% 1702 87078 13789 38%
c f 22.56 32 212 0 29 8075 24 104571 15916 3.1 22 7 1 5 21% 1777 86582 13831 39%
c u 22.67 32 212 0 29 8075 24 104571 15599 3.1 22 7 1 5 21% 1794 86582 13825 39%
c
c  seconds   switched     rate          size/glue tier1    binary         remaining
c         MB   reductions   conflicts         size  tier2     irredundant
c           level   restarts       redundant    glue   trail         variables
c
c v 22.73 32 212 0 29 8075 24 104571 15041 3.1 22 7 1 5 21% 1795 86582 13825 39%
c w 22.90 32 212 0 29 8075 24 104571 14665 3.1 22 7 1 5 21% 1795 86582 13825 39%
c t 23.24 32 212 0 29 8075 24 104571 14665 3.1 22 7 1 5 21% 1786 86582 13825 39%
c - 23.70 32 210 0 30 8429 24 107616 14972 3.1 22 7 1 5 21% 1798 86581 13825 39%
c o 24.18 32 209 0 30 8806 24 110947 18033 3.1 22 7 1 5 22% 1818 86581 13825 39%
c - 24.47 32 210 0 31 9024 24 113093 17573 3.1 23 7 1 5 22% 1833 86581 13825 39%
c - 25.35 32 207 0 32 9708 25 118660 19728 3.2 23 7 1 5 22% 1861 86580 13825 39%
c - 25.94 32 202 0 33 10099 24 124316 21240 3.2 23 7 1 5 22% 1898 86580 13825 39%
c - 26.62 32 200 0 34 10465 24 130061 22526 3.2 23 7 1 5 22% 1937 86577 13825 39%
c d 27.09 32 199 0 34 10759 24 132813 25088 3.2 24 7 1 5 23% 1935 86577 13819 38%
c u 27.14 32 199 0 34 10759 24 132813 23195 3.2 24 7 1 5 23% 1955 86577 13819 38%
c v 27.21 32 199 0 34 10759 24 132813 20273 3.2 24 7 1 5 23% 1964 86577 13819 38%
c w 27.30 32 199 0 34 10759 24 132813 20268 3.2 24 7 1 5 23% 1964 86577 13819 38%
c x 27.36 32 199 0 34 10759 24 132813 20234 3.2 24 7 1 5 23% 1985 84269 13819 38%
c d 27.37 32 199 0 34 10759 24 132813 20227 3.2 24 7 1 5 23% 1977 84269 13815 38%
c t 27.38 32 199 0 34 10759 24 132813 20227 3.2 24 7 1 5 23% 1954 84269 13815 38%
c u 27.43 32 199 0 34 10759 24 132813 19751 3.2 24 7 1 5 23% 1956 84269 13815 38%
c v 27.48 32 199 0 34 10759 24 132813 19097 3.2 24 7 1 5 23% 1959 84269 13815 38%
c w 27.61 32 199 0 34 10759 24 132813 19007 3.2 24 7 1 5 23% 1959 84269 13815 38%
c x 27.69 32 199 0 34 10759 24 132813 18999 3.2 24 7 1 5 23% 1992 83606 13815 38%
c
c  seconds   switched      rate          size/glue tier1    binary         remaining
c         MB   reductions    conflicts         size  tier2     irredundant
c           level   restarts        redundant    glue   trail         variables
c
c t 28.04 32 199 0 34 10759 24 132813 18999 3.2 24 7 1 5 23% 1979 83606 13815 38%
c - 28.25 32 198 0 35 10875 23 135891 18820 3.2 23 7 1 5 23% 2019 83603 13815 38%
c - 28.83 32 195 0 36 11280 23 141810 21258 3.2 23 7 1 5 23% 2053 83602 13815 38%
c - 29.52 32 192 0 37 11759 23 147811 23321 3.2 24 7 1 4 23% 2091 83602 13815 38%
c - 30.47 32 189 0 38 12380 23 153893 24913 3.2 25 8 1 4 24% 2136 83601 13815 38%
c s 30.87 32 188 0 38 12652 23 157861 28364 3.2 25 8 1 4 24% 2166 83458 13815 38%
c e 30.96 32 188 0 38 12652 23 157861 28364 3.2 25 8 1 4 24% 1627 96047 12205 34%
c 2 30.96 32 188 0 38 12652 23 157861 28364 3.2 25 8 1 4 24% 1623 96047 12205 34%
c s 30.98 32 188 0 38 12652 23 157861 28364 3.2 25 8 1 4 24% 1647 93933 12205 34%
c e 31.00 32 188 0 38 12652 23 157861 28364 3.2 25 8 1 4 24% 1600 94124 12175 34%
c ^ 31.00 32 188 0 38 12652 23 157861 28364 3.2 25 8 1 4 24% 1600 94124 12175 34%
c - 31.20 32 186 0 39 12791 23 160057 20204 3.2 25 8 1 4 24% 1619 94124 12175 34%
c o 31.36 32 186 0 39 12898 23 161288 21341 3.2 25 8 1 4 24% 1619 94124 12175 34%
c c 31.82 32 184 0 39 13227 23 164790 24651 3.2 25 8 1 4 24% 1665 93958 12153 34%
c d 31.83 32 184 0 39 13227 23 164790 24583 3.2 25 8 1 4 24% 1621 93958 12153 34%
c u 31.87 32 184 0 39 13227 23 164790 22484 3.2 25 8 1 4 24% 1643 93958 12153 34%
c v 31.92 32 184 0 39 13227 23 164790 20054 3.2 25 8 1 4 24% 1651 93958 12153 34%
c w 32.07 32 184 0 39 13227 23 164790 20045 3.2 25 8 1 4 24% 1651 93958 12153 34%
c x 32.13 32 184 0 39 13227 23 164790 20037 3.2 25 8 1 4 24% 1675 93870 12153 34%
c d 32.14 32 184 0 39 13227 23 164790 20025 3.2 25 8 1 4 24% 1665 93870 12148 34%
c
c  seconds   switched      rate          size/glue tier1    binary         remaining
c         MB   reductions    conflicts         size  tier2     irredundant
c           level   restarts        redundant    glue   trail         variables
c
c t 32.14 32 184 0 39 13227 23 164790 20025 3.2 25 8 1 4 24% 1620 93870 12148 34%
c u 32.26 32 184 0 39 13227 23 164790 19564 3.2 25 8 1 4 24% 1626 93870 12148 34%
c v 32.29 32 184 0 39 13227 23 164790 19100 3.2 25 8 1 4 24% 1628 93870 12148 34%
c w 32.54 32 184 0 39 13227 23 164790 18235 3.2 25 8 1 4 24% 1628 93870 12148 34%
c d 32.55 32 184 0 39 13227 23 164790 18233 3.2 25 8 1 4 24% 1624 93870 12146 34%
c t 32.56 32 184 0 39 13227 23 164790 18233 3.2 25 8 1 4 24% 1622 93870 12146 34%
c - 32.78 32 183 0 40 13365 23 166301 17150 3.2 26 8 1 4 24% 1625 93869 12146 34%
c - 33.50 32 181 0 41 13928 23 172625 20110 3.2 26 8 1 4 25% 1633 93867 12146 34%
c - 34.10 32 177 0 42 14351 22 179029 22415 3.2 26 8 1 4 25% 1664 93864 12146 34%
c - 34.83 32 174 0 43 14874 22 185513 24074 3.2 26 8 1 4 25% 1690 93862 12146 34%
c - 35.59 32 171 0 44 15382 22 192070 25580 3.2 26 8 1 4 25% 1735 93861 12146 34%
c - 36.18 33 169 0 45 15729 21 198703 26602 3.2 26 8 1 4 25% 1796 93860 12146 34%
c c 36.53 33 168 0 45 15949 21 200571 28348 3.2 26 8 1 4 25% 1820 93503 12099 34%
c d 36.53 33 168 0 45 15949 21 200571 28173 3.2 26 8 1 4 25% 1726 93503 12099 34%
c u 36.58 33 168 0 45 15949 21 200571 26204 3.2 26 8 1 4 25% 1739 93503 12099 34%
c v 36.64 33 168 0 45 15949 21 200571 23246 3.2 26 8 1 4 25% 1746 93503 12099 34%
c w 36.76 33 168 0 45 15949 21 200571 23145 3.2 26 8 1 4 25% 1746 93503 12099 34%
c x 36.83 33 168 0 45 15949 21 200571 23108 3.2 26 8 1 4 25% 1758 92982 12099 34%
c d 37.25 33 168 0 45 15949 21 200571 23101 3.2 26 8 1 4 25% 1748 92982 12094 34%
c t 37.26 33 168 0 45 15949 21 200571 23101 3.2 26 8 1 4 25% 1732 92982 12094 34%
c
c  seconds   switched      rate          size/glue tier1    binary         remaining
c         MB   reductions    conflicts         size  tier2     irredundant
c           level   restarts        redundant    glue   trail         variables
c
c c 37.30 33 168 0 45 15949 21 200571 23095 3.2 26 8 1 4 25% 1734 92974 12093 34%
c d 37.30 33 168 0 45 15949 21 200571 23095 3.2 26 8 1 4 25% 1732 92974 12093 34%
c u 37.34 33 168 0 45 15949 21 200571 22578 3.2 26 8 1 4 25% 1739 92974 12093 34%
c v 37.38 33 168 0 45 15949 21 200571 22025 3.2 26 8 1 4 25% 1740 92974 12093 34%
c w 37.51 33 168 0 45 15949 21 200571 21300 3.2 26 8 1 4 25% 1740 92974 12093 34%
c x 37.59 33 168 0 45 15949 21 200571 21270 3.2 26 8 1 4 25% 1765 92310 12093 34%
c d 37.60 33 168 0 45 15949 21 200571 21268 3.2 26 8 1 4 25% 1763 92310 12092 34%
c t 37.60 33 168 0 45 15949 21 200571 21268 3.2 26 8 1 4 25% 1755 92310 12092 34%
c - 38.10 33 167 0 46 16341 21 205413 22122 3.2 26 8 1 4 25% 1770 92309 12092 34%
c - 38.71 33 164 0 47 16737 21 212195 24665 3.1 26 8 1 4 26% 1791 92309 12092 34%
c - 39.25 33 159 0 48 17101 20 219050 26451 3.1 26 8 1 4 25% 1812 92308 12092 34%
c o 39.46 33 158 0 48 17273 20 221357 28603 3.1 26 8 1 4 25% 1825 92308 12092 34%
c - 39.90 33 156 0 49 17600 20 225978 27752 3.1 26 8 1 4 25% 1846 92307 12092 34%
c - 40.41 33 151 0 50 18011 20 232979 28645 3.1 25 8 1 4 25% 1879 92306 12092 34%
c s 40.97 33 147 0 50 18412 19 239968 35028 3.0 25 8 1 4 24% 1904 92268 12092 34%
c e 41.08 33 147 0 50 18412 19 239968 35028 3.0 25 8 1 4 24% 1374 104451 11165 31%
c 2 41.08 33 147 0 50 18412 19 239968 35028 3.0 25 8 1 4 24% 1371 104451 11165 31%
c s 41.10 33 147 0 50 18412 19 239968 35028 3.0 25 8 1 4 24% 1383 101316 11165 31%
c e 41.14 33 147 0 50 18412 19 239968 35028 3.0 25 8 1 4 24% 1321 101696 11139 31%
c ! 41.14 33 147 0 50 18412 19 239968 35028 3.0 25 8 1 4 24% 1321 101696 11139 31%
c
c  seconds   switched      rate          size/glue tier1    binary          remaining
c         MB   reductions    conflicts         size  tier2     irredundant
c           level   restarts        redundant    glue   trail          variables
c
c - 41.14 33 147 0 51 18412 19 240051 23090 3.0 25 8 1 4 24% 1321 101696 11139 31%
c u 41.19 33 147 0 51 18412 19 240228 21429 3.0 25 8 1 4 24% 1327 101696 11139 31%
c v 41.24 33 147 0 51 18412 19 240228 19267 3.0 25 8 1 4 24% 1331 101696 11139 31%
c w 41.26 33 147 0 51 18412 19 240228 18868 3.0 25 8 1 4 24% 1331 101696 11139 31%
c x 41.35 33 147 0 51 18412 19 240228 18819 3.0 25 8 1 4 24% 1332 101226 11139 31%
c d 41.35 33 147 0 51 18412 19 240228 18818 3.0 25 8 1 4 24% 1330 101226 11138 31%
c t 41.36 33 147 0 51 18412 19 240228 18818 3.0 25 8 1 4 24% 1322 101226 11138 31%
c f 41.43 33 147 0 51 18412 19 240228 18818 3.0 25 8 1 4 24% 1370 101014 11146 31%
c c 41.46 33 147 0 51 18412 19 240228 18800 3.0 25 8 1 4 24% 1390 100933 11139 31%
c d 41.47 33 147 0 51 18412 19 240228 18800 3.0 25 8 1 4 24% 1376 100933 11139 31%
c u 41.50 33 147 0 51 18412 19 240228 18598 3.0 25 8 1 4 24% 1378 100933 11139 31%
c v 41.53 33 147 0 51 18412 19 240228 18216 3.0 25 8 1 4 24% 1379 100933 11139 31%
c w 41.55 33 147 0 51 18412 19 240228 18096 3.0 25 8 1 4 24% 1379 100933 11139 31%
c x 41.68 33 147 0 51 18412 19 240228 18047 3.0 25 8 1 4 24% 1396 99296 11139 31%
c t 41.69 33 147 0 51 18412 19 240228 18047 3.0 25 8 1 4 24% 1392 99296 11139 31%
c - 42.24 33 145 0 52 18791 19 247193 21200 3.0 25 8 1 4 24% 1412 99295 11139 31%
c - 42.81 33 142 0 53 19099 18 254404 23985 2.9 24 8 1 4 24% 1437 99294 11139 31%
c - 43.43 33 139 0 54 19596 18 261685 25578 2.9 24 8 1 5 24% 1464 99290 11139 31%
c - 44.01 33 136 0 55 20018 17 269038 26787 2.9 24 8 1 5 24% 1492 99286 11139 31%
c - 44.70 42 134 0 56 20506 17 276454 28072 2.9 24 8 1 5 24% 1505 99285 11139 31%
c
c  seconds   switched      rate          size/glue tier1    binary         remaining
c         MB   reductions    conflicts         size  tier2     irredundant
c           level   restarts        redundant    glue   trail         variables
c
c d 45.24 40 131 0 56 20871 17 283854 34630 2.8 23 8 1 5 24% 1488 99283 11119 31%
c u 45.30 40 131 0 56 20871 17 283854 32728 2.8 23 8 1 5 24% 1497 99283 11119 31%
c v 45.37 40 131 0 56 20871 17 283854 30091 2.8 23 8 1 5 24% 1498 99283 11119 31%
c w 45.41 40 131 0 56 20871 17 283854 30058 2.8 23 8 1 5 24% 1498 99283 11119 31%
c x 45.48 41 131 0 56 20871 17 283854 30032 2.8 23 8 1 5 24% 1498 99260 11119 31%
c d 45.88 41 131 0 56 20871 17 283854 30014 2.8 23 8 1 5 24% 1490 99259 11115 31%
c t 45.89 41 131 0 56 20871 17 283854 30014 2.8 23 8 1 5 24% 1479 99259 11115 31%
c u 45.98 41 131 0 56 20871 17 283854 29680 2.8 23 8 1 5 24% 1486 99259 11115 31%
c v 46.08 41 131 0 56 20871 17 283854 27291 2.8 23 8 1 5 24% 1496 99259 11115 31%
c w 46.23 41 131 0 56 20871 17 283854 27031 2.8 23 8 1 5 24% 1496 99259 11115 31%
c t 46.24 41 131 0 56 20871 17 283854 27031 2.8 23 8 1 5 24% 1493 99259 11115 31%
c - 46.27 41 131 0 57 20881 17 283938 22744 2.8 23 8 1 5 24% 1494 99259 11115 31%
c - 46.73 41 128 0 58 21232 16 291491 24909 2.8 23 8 1 5 24% 1525 99253 11115 31%
c o 46.74 41 128 0 58 21233 16 291980 25321 2.8 23 8 1 5 24% 1525 99253 11115 31%
c - 47.16 41 125 0 59 21546 16 299106 27134 2.7 22 8 1 5 24% 1544 99251 11115 31%
c - 47.62 40 121 0 60 21900 15 306787 28355 2.7 22 8 1 5 23% 1570 99251 11115 31%
c - 48.13 41 119 0 61 22256 15 314532 29660 2.7 22 8 1 5 23% 1588 99250 11115 31%
c - 48.60 41 116 0 62 22599 14 322342 30827 2.6 21 8 1 5 23% 1610 99250 11115 31%
c - 49.14 41 113 0 63 23006 14 330217 31772 2.6 21 8 1 5 22% 1635 99250 11115 31%
c c 49.23 33 112 0 63 23072 14 331506 32947 2.6 21 8 1 5 22% 1644 99026 11087 31%
c
c  seconds   switched      rate          size/glue tier1    binary         remaining
c         MB   reductions    conflicts         size  tier2     irredundant
c           level   restarts        redundant    glue   trail         variables
c
c d 49.23 33 112 0 63 23072 14 331506 32884 2.6 21 8 1 5 22% 1588 99026 11087 31%
c u 49.30 33 112 0 63 23072 14 331506 30714 2.6 21 8 1 5 22% 1615 99026 11087 31%
c v 49.36 33 112 0 63 23072 14 331506 28862 2.6 21 8 1 5 22% 1613 99026 11087 31%
c w 49.38 33 112 0 63 23072 14 331506 28787 2.6 21 8 1 5 22% 1613 99026 11087 31%
c x 49.44 33 112 0 63 23072 14 331506 28777 2.6 21 8 1 5 22% 1613 99020 11087 31%
c d 49.44 33 112 0 63 23072 14 331506 28773 2.6 21 8 1 5 22% 1607 99020 11084 31%
c t 49.45 33 112 0 63 23072 14 331506 28773 2.6 21 8 1 5 22% 1587 99020 11084 31%
c u 49.52 33 112 0 63 23072 14 331506 28377 2.6 21 8 1 5 22% 1594 99020 11084 31%
c v 49.59 33 112 0 63 23072 14 331506 25893 2.6 21 8 1 5 22% 1602 99020 11084 31%
c w 49.63 33 112 0 63 23072 14 331506 25550 2.6 21 8 1 5 22% 1602 99020 11084 31%
c d 49.64 33 112 0 63 23072 14 331506 25549 2.6 21 8 1 5 22% 1600 99020 11083 31%
c t 49.64 33 112 0 63 23072 14 331506 25549 2.6 21 8 1 5 22% 1598 99020 11083 31%
c i 49.69 33 112 0 63 23109 14 332756 26642 2.6 21 8 1 5 22% 1614 99017 11082 31%
c - 49.84 33 110 0 64 23229 13 338154 26385 2.6 20 8 1 5 22% 1637 99016 11082 31%
c s 49.98 33 106 0 64 23340 13 343696 31297 2.5 20 8 1 5 21% 1649 98858 11082 31%
c e 50.02 33 106 0 64 23340 13 343696 31297 2.5 20 8 1 5 21% 1521 99933 10983 31%
c s 50.03 33 106 0 64 23340 13 343696 31297 2.5 20 8 1 5 21% 1531 99321 10983 31%
c e 50.05 33 106 0 64 23340 13 343696 31297 2.5 20 8 1 5 21% 1525 99366 10980 31%
c - 50.10 33 105 0 65 23369 13 346155 27205 2.5 20 8 1 5 20% 1526 99366 10980 31%
c - 50.22 33 99 0 66 23472 12 354217 29148 2.5 19 8 1 5 19% 1548 99366 10980 31%
c
c  seconds  switched      rate          size/glue tier1    binary         remaining
c         MB  reductions    conflicts         size  tier2     irredundant
c          level   restarts        redundant    glue   trail         variables
c
c i 50.22 33 99 0 66 23472 12 354248 29156 2.5 19 8 1 5 19% 1552 99366 10979 31%
c i 50.22 33 99 0 66 23480 12 354401 29255 2.5 19 8 1 5 19% 1558 99366 10977 31%
c i 50.22 33 99 0 66 23480 12 354435 29268 2.5 19 8 1 5 19% 1563 99366 10975 31%
c i 50.22 33 99 0 66 23480 12 354463 29275 2.5 19 8 1 5 19% 1567 99366 10972 31%
c i 50.22 33 99 0 66 23480 12 354496 29291 2.5 19 8 1 5 19% 1571 99366 10970 31%
c i 50.22 33 99 0 66 23480 12 354504 29290 2.5 19 8 1 5 19% 1575 99366 10967 31%
c i 50.22 33 99 0 66 23480 12 354505 29290 2.5 19 8 1 5 19% 1575 99366 10966 31%
c i 50.22 33 99 0 66 23480 12 354506 29290 2.5 19 8 1 5 19% 1575 99366 10950 30%
c } 50.22 33 99 0 66 23480 12 354508 29290 2.5 19 8 1 5 19% 1575 99366 10905 30%
c 0 50.22 33 99 0 66 23480 12 354508 29290 2.5 19 8 1 5 19% 1575 99366 10905 30%
c
c ---- [ result ] ------------------------------------------------------------
c
s UNSATISFIABLE
c
c ---- [ profiling ] ---------------------------------------------------------
c
c          36.95   73.58 %  search
c          36.95   73.58 %  focused
c          12.81   25.51 %  simplify
c          12.06   24.00 %  probe
c           5.44   10.84 %  vivify
c           4.27    8.50 %  sweep
c           1.00    1.98 %  eliminate
c           0.83    1.66 %  factor
c           0.72    1.43 %  congruence
c           0.62    1.23 %  substitute
c           0.40    0.80 %  preprocess
c           0.29    0.57 %  reduce
c           0.17    0.34 %  subsume
c           0.15    0.30 %  fastel
c           0.10    0.21 %  transitive
c           0.06    0.13 %  backbone
c           0.03    0.06 %  lucky
c           0.03    0.06 %  parse
c =============================================
c          50.22  100.00 %  total
c
c ---- [ statistics ] --------------------------------------------------------
c
c chronological:                        10033                3 %  conflicts
c conflicts:                           354508             7058.35 per second
c congruent:                             7753               22 %  variables
c decisions:                          6022192               16.99 per conflict
c eliminated:                           14748               41 %  variables
c factored:                              3629               10 %  variables
c fast_eliminated:                      10428               71 %  eliminated
c fast_strengthened:                       20                0 %  per strengthened
c fast_subsumed:                           57                0 %  per subsumed
c iterations:                              10                0 %  variables
c propagations:                     229186223          4563159    per second
c reductions:                              66             5371    interval
c reordered:                                8            44314    interval
c restarts:                             23480               15    interval
c strengthened:                         10502                0 %  checks
c substituted:                          13796               38 %  variables
c subsumed:                             39686                1 %  checks
c switched:                                 0                0    interval
c vivified:                            103757               10 %  checks
c
c ---- [ glue usage ] --------------------------------------------------------
c
c focused glue 1 used 778423 clauses 61.17% accumulated 61.17% tier1
c focused glue 2 used 222884 clauses 17.51% accumulated 78.68%
c focused glue 3 used  84528 clauses  6.64% accumulated 85.32%
c focused glue 4 used  48084 clauses  3.78% accumulated 89.10%
c focused glue 5 used  31526 clauses  2.48% accumulated 91.58% tier2
c
c ---- [ resources ] ---------------------------------------------------------
c
c maximum-resident-set-size:         43540480 bytes         42 MB
c process-time:                            50s              50.23 seconds
c
c ---- [ shutting down ] -----------------------------------------------------
c
c exit 20
